p wcnf 140 1300
3 -137 138 0
1 -133 -136 0
9 -133 139 0
5 -131 137 0
5 -130 133 0
5 -129 -130 0
3 -128 130 0
4 -127 -138 0
4 -125 -126 0
7 -125 131 0
4 -124 -127 0
1 -123 -129 0
7 -123 126 0
9 -122 -134 0
10 -121 -127 0
4 -121 135 0
6 -121 137 0
5 -119 -124 0
5 -119 134 0
5 -118 -120 0
7 -118 -119 0
4 -118 123 0
8 -116 132 0
4 -116 135 0
8 -115 -123 0
6 -115 122 0
6 -114 125 0
3 -114 139 0
9 -113 -119 0
5 -112 125 0
9 -111 -112 0
2 -111 130 0
5 -110 111 0
8 -110 140 0
6 -109 -133 0
10 -109 -123 0
3 -108 -129 0
7 -108 112 0
4 -107 -128 0
6 -107 -114 0
4 -107 113 0
6 -106 -125 0
6 -106 -111 0
1 -106 117 0
5 -105 126 0
6 -105 128 0
4 -104 -111 0
1 -104 -107 0
1 -104 108 0
8 -104 115 0
6 -104 118 0
7 -104 138 0
2 -102 -131 0
4 -102 -124 0
1 -102 -119 0
9 -102 -103 0
9 -102 106 0
6 -101 -109 0
2 -101 -105 0
9 -101 130 0
2 -100 -113 0
10 -100 136 0
10 -99 101 0
6 -99 119 0
8 -98 -134 0
5 -98 117 0
6 -97 -138 0
10 -97 -128 0
3 -97 108 0
8 -97 110 0
6 -97 122 0
6 -97 132 0
5 -97 135 0
2 -96 124 0
6 -95 -127 0
9 -95 -114 0
7 -95 -107 0
10 -95 -100 0
9 -95 -99 0
7 -95 135 0
8 -94 -109 0
5 -93 118 0
4 -92 -118 0
9 -92 97 0
8 -92 138 0
4 -91 -124 0
8 -91 -109 0
7 -91 103 0
9 -90 -131 0
8 -90 -116 0
6 -90 -112 0
10 -90 -95 0
8 -90 127 0
5 -89 -132 0
6 -89 104 0
6 -89 107 0
10 -89 124 0
2 -89 125 0
6 -89 138 0
2 -88 -137 0
9 -88 -107 0
2 -88 -101 0
7 -88 100 0
4 -88 106 0
3 -88 129 0
4 -88 136 0
3 -88 138 0
8 -87 -126 0
3 -87 -93 0
2 -86 -129 0
5 -86 -115 0
1 -86 -105 0
6 -86 125 0
8 -84 -134 0
9 -84 -106 0
4 -84 -88 0
2 -84 129 0
7 -83 84 0
10 -83 92 0
1 -83 131 0
5 -82 -126 0
5 -82 -117 0
10 -82 -116 0
3 -82 93 0
9 -81 -126 0
6 -81 -83 0
8 -80 -111 0
9 -80 -98 0
7 -80 97 0
4 -80 130 0
1 -79 -84 0
6 -79 81 0
5 -79 133 0
8 -79 137 0
9 -78 -138 0
7 -78 -126 0
1 -78 -120 0
2 -78 -103 0
5 -77 111 0
4 -76 -116 0
3 -76 -90 0
10 -76 89 0
4 -75 -139 0
7 -75 -94 0
8 -75 -83 0
3 -75 84 0
10 -75 122 0
9 -75 132 0
9 -74 -98 0
10 -74 -86 0
9 -74 -85 0
4 -74 95 0
5 -74 111 0
9 -74 120 0
6 -73 -127 0
4 -73 -113 0
4 -73 -98 0
4 -73 105 0
3 -73 120 0
10 -73 122 0
8 -73 124 0
3 -72 77 0
6 -72 125 0
3 -71 -134 0
10 -71 -99 0
5 -71 -83 0
9 -71 78 0
1 -71 101 0
5 -71 139 0
5 -70 -73 0
4 -70 90 0
7 -70 108 0
4 -70 122 0
7 -70 133 0
4 -69 -107 0
2 -69 70 0
9 -69 88 0
4 -69 123 0
10 -68 -85 0
8 -68 77 0
4 -68 84 0
9 -68 91 0
1 -68 107 0
8 -68 119 0
7 -68 129 0
6 -67 -98 0
2 -67 116 0
1 -66 -137 0
9 -66 -125 0
3 -66 92 0
1 -66 96 0
7 -66 123 0
5 -66 132 0
6 -66 138 0
10 -65 -115 0
5 -65 107 0
10 -65 111 0
9 -65 140 0
5 -64 -118 0
5 -64 -116 0
4 -63 -138 0
8 -63 -126 0
2 -63 -120 0
7 -63 -111 0
5 -63 -80 0
5 -63 102 0
8 -63 139 0
4 -62 -138 0
8 -62 -112 0
8 -62 75 0
2 -61 -116 0
2 -61 -101 0
7 -61 -88 0
2 -61 -69 0
8 -61 77 0
4 -60 -140 0
7 -60 -130 0
9 -60 -107 0
4 -60 -104 0
6 -60 -66 0
2 -59 -129 0
5 -59 -91 0
3 -59 -65 0
7 -58 -118 0
10 -58 -101 0
3 -58 72 0
2 -58 106 0
9 -57 -85 0
2 -57 -68 0
6 -57 61 0
4 -57 99 0
4 -57 131 0
4 -56 -109 0
5 -56 -106 0
1 -56 -72 0
8 -56 63 0
8 -56 137 0
9 -55 -107 0
2 -55 57 0
7 -55 130 0
7 -54 -119 0
3 -54 -70 0
8 -54 76 0
3 -54 93 0
3 -54 140 0
6 -53 -121 0
6 -53 -116 0
9 -53 -106 0
5 -53 -76 0
10 -53 -59 0
5 -53 94 0
6 -53 96 0
4 -52 -138 0
8 -52 -112 0
3 -52 -104 0
4 -52 -74 0
10 -52 -61 0
4 -52 -55 0
3 -52 70 0
2 -52 112 0
9 -52 140 0
6 -51 -117 0
5 -51 -101 0
4 -51 -95 0
9 -51 -76 0
5 -51 62 0
2 -51 105 0
8 -51 123 0
4 -51 130 0
3 -50 -138 0
4 -50 70 0
9 -50 82 0
5 -50 88 0
2 -50 111 0
3 -50 130 0
7 -49 -127 0
7 -49 -120 0
8 -49 -74 0
6 -49 -72 0
2 -49 56 0
8 -49 115 0
2 -49 124 0
7 -48 -101 0
2 -48 -91 0
8 -48 -57 0
9 -48 51 0
4 -48 94 0
8 -47 -135 0
4 -47 -104 0
6 -47 -99 0
9 -47 -78 0
3 -47 -66 0
2 -47 53 0
4 -47 57 0
6 -47 83 0
1 -47 120 0
8 -46 -111 0
6 -46 -101 0
8 -46 -70 0
2 -46 -63 0
9 -46 -54 0
2 -46 55 0
1 -46 66 0
3 -46 83 0
3 -46 105 0
3 -46 115 0
10 -46 136 0
9 -45 -133 0
1 -45 -67 0
6 -45 -47 0
10 -45 53 0
8 -45 54 0
7 -45 60 0
7 -45 72 0
9 -45 80 0
5 -45 125 0
6 -44 -105 0
3 -44 -96 0
3 -44 -95 0
9 -44 -74 0
8 -44 64 0
2 -44 116 0
2 -44 140 0
9 -43 -130 0
5 -43 -118 0
7 -43 -115 0
9 -43 -81 0
3 -43 -59 0
3 -43 86 0
7 -43 109 0
4 -43 134 0
2 -42 -113 0
8 -42 -93 0
4 -42 -86 0
4 -42 -84 0
10 -42 46 0
6 -42 119 0
4 -41 -140 0
9 -41 -131 0
6 -41 -105 0
9 -41 -85 0
8 -41 -79 0
4 -41 -46 0
5 -41 61 0
5 -41 64 0
3 -41 100 0
9 -40 -136 0
1 -40 -129 0
4 -40 -103 0
3 -40 42 0
9 -40 62 0
3 -40 92 0
4 -40 130 0
1 -40 132 0
2 -39 -116 0
8 -39 -41 0
7 -39 45 0
10 -39 80 0
1 -39 121 0
10 -38 -131 0
6 -38 -114 0
4 -38 -47 0
2 -38 51 0
4 -38 78 0
7 -38 95 0
5 -37 -98 0
4 -37 71 0
4 -37 128 0
7 -36 -133 0
3 -36 -87 0
9 -36 -53 0
6 -36 86 0
1 -36 92 0
3 -36 119 0
1 -35 -140 0
6 -35 -107 0
4 -35 -97 0
9 -35 -56 0
6 -35 -50 0
8 -35 -37 0
2 -35 61 0
5 -35 89 0
9 -35 120 0
5 -34 39 0
5 -33 -88 0
10 -32 -96 0
3 -32 -54 0
3 -32 -35 0
9 -32 47 0
3 -32 68 0
2 -32 76 0
6 -31 -134 0
6 -31 -104 0
3 -31 -82 0
9 -31 49 0
4 -31 95 0
7 -31 139 0
3 -30 -104 0
6 -30 -103 0
4 -30 -91 0
6 -30 -65 0
5 -30 32 0
9 -30 39 0
6 -30 84 0
7 -30 104 0
10 -30 124 0
2 -29 -133 0
1 -29 -103 0
9 -29 -84 0
6 -29 -38 0
8 -29 113 0
1 -29 121 0
2 -29 123 0
7 -28 -129 0
5 -28 -34 0
6 -28 47 0
7 -28 75 0
7 -28 107 0
8 -28 120 0
7 -28 121 0
9 -28 125 0
9 -28 133 0
3 -27 -99 0
6 -27 -42 0
2 -27 -29 0
2 -27 44 0
9 -27 62 0
8 -27 78 0
4 -27 96 0
5 -27 124 0
2 -26 -116 0
9 -26 43 0
9 -26 71 0
2 -26 91 0
5 -26 96 0
6 -25 -67 0
2 -25 -36 0
6 -25 38 0
7 -24 -82 0
10 -24 -58 0
2 -24 27 0
5 -24 41 0
1 -24 79 0
2 -24 98 0
2 -23 -120 0
6 -23 -118 0
7 -23 -116 0
9 -23 -108 0
3 -23 -77 0
5 -23 -58 0
5 -23 -53 0
2 -23 42 0
4 -23 78 0
7 -23 88 0
7 -22 -104 0
6 -22 -32 0
8 -22 90 0
6 -22 119 0
4 -21 -111 0
2 -21 -65 0
1 -21 -50 0
5 -21 -42 0
10 -21 49 0
10 -21 55 0
6 -21 59 0
4 -21 64 0
6 -21 112 0
7 -20 -100 0
9 -20 -83 0
3 -20 -43 0
7 -20 66 0
10 -20 84 0
7 -20 136 0
7 -19 -77 0
2 -19 -64 0
8 -19 34 0
3 -19 40 0
9 -19 115 0
6 -18 -95 0
4 -18 29 0
4 -18 32 0
2 -18 35 0
6 -18 54 0
7 -18 57 0
8 -18 64 0
3 -18 83 0
3 -17 -139 0
5 -17 -135 0
8 -17 -90 0
6 -17 -79 0
6 -17 -65 0
8 -17 -28 0
10 -17 30 0
6 -17 50 0
7 -17 109 0
6 -17 122 0
9 -16 -124 0
3 -16 -75 0
3 -16 -69 0
8 -16 -54 0
5 -16 -50 0
9 -16 31 0
8 -16 66 0
2 -16 77 0
6 -16 102 0
10 -15 -135 0
9 -15 -112 0
7 -15 -109 0
8 -15 -100 0
5 -15 -38 0
2 -15 -28 0
2 -15 34 0
6 -15 46 0
6 -15 125 0
9 -14 -105 0
4 -14 -87 0
8 -14 -20 0
2 -14 30 0
8 -14 133 0
6 -13 -123 0
6 -13 -53 0
4 -13 -34 0
3 -13 -32 0
6 -13 -30 0
9 -13 -22 0
10 -13 34 0
3 -13 42 0
9 -13 98 0
3 -13 124 0
5 -13 134 0
7 -12 -126 0
7 -12 -105 0
3 -12 -22 0
5 -12 25 0
8 -12 33 0
8 -12 49 0
4 -12 120 0
6 -11 -116 0
6 -11 -86 0
3 -11 -49 0
2 -11 -28 0
6 -11 -27 0
4 -11 12 0
6 -11 15 0
3 -11 26 0
3 -11 79 0
9 -11 86 0
10 -11 93 0
4 -11 134 0
7 -10 -98 0
5 -10 -27 0
9 -10 29 0
2 -10 34 0
7 -10 50 0
5 -10 59 0
10 -10 60 0
7 -10 111 0
7 -10 135 0
8 -9 -65 0
9 -9 -26 0
2 -9 -25 0
5 -9 11 0
6 -9 40 0
4 -9 45 0
9 -9 54 0
4 -9 66 0
2 -9 132 0
4 -8 -93 0
9 -8 -61 0
7 -8 -44 0
5 -8 81 0
1 -8 99 0
4 -8 106 0
9 -8 124 0
6 -7 -68 0
5 -7 -29 0
2 -7 51 0
6 -7 75 0
5 -7 91 0
4 -7 94 0
3 -7 125 0
9 -7 140 0
3 -6 -131 0
4 -6 -120 0
6 -6 -101 0
8 -6 19 0
4 -6 88 0
3 -6 91 0
5 -6 107 0
2 -5 -140 0
2 -5 -122 0
6 -5 -84 0
6 -5 -70 0
7 -5 -55 0
9 -5 -47 0
5 -5 -46 0
1 -5 -31 0
1 -5 -11 0
8 -5 8 0
10 -5 50 0
7 -5 85 0
3 -5 99 0
10 -4 -128 0
10 -4 -115 0
2 -4 -55 0
6 -4 -19 0
5 -4 -5 0
3 -4 28 0
2 -4 74 0
9 -4 84 0
6 -4 125 0
4 -4 130 0
8 -3 -137 0
8 -3 -133 0
6 -3 -83 0
4 -3 -79 0
6 -3 -68 0
9 -3 -9 0
6 -3 8 0
10 -3 69 0
1 -3 73 0
7 -3 133 0
5 -2 -72 0
6 -2 -69 0
4 -2 -49 0
4 -2 -29 0
2 -2 5 0
5 -2 7 0
4 -2 78 0
9 -2 91 0
4 -2 117 0
1 -1 -73 0
2 -1 -62 0
4 -1 -29 0
1 -1 -6 0
3 -1 8 0
10 -1 11 0
5 -1 19 0
4 -1 53 0
1 -1 74 0
4 -1 82 0
9 -1 96 0
4 -1 116 0
2 -1 135 0
7 1 -139 0
10 1 -61 0
4 1 -17 0
3 1 -16 0
9 1 72 0
9 1 124 0
3 1 130 0
9 1 139 0
6 2 -95 0
7 2 -83 0
5 2 -68 0
9 2 -54 0
10 2 -46 0
6 2 -28 0
4 2 5 0
4 2 8 0
4 2 81 0
7 2 95 0
4 3 -126 0
5 3 -93 0
1 3 -74 0
5 3 -38 0
7 3 45 0
10 3 83 0
9 3 134 0
10 3 136 0
1 3 140 0
3 4 -96 0
9 4 -86 0
4 4 -20 0
4 4 13 0
6 4 85 0
4 4 99 0
7 4 133 0
8 4 134 0
3 5 -117 0
6 5 -90 0
10 5 -82 0
2 5 -59 0
2 5 -50 0
7 5 -46 0
6 5 -34 0
1 5 -32 0
6 5 -31 0
1 5 60 0
4 5 120 0
9 5 127 0
5 6 -130 0
10 6 -120 0
4 6 -92 0
9 6 -83 0
10 6 7 0
7 6 28 0
5 6 58 0
10 6 63 0
6 6 69 0
5 6 84 0
10 7 -137 0
8 7 -110 0
4 7 -55 0
4 7 -50 0
2 7 -23 0
9 7 -11 0
7 7 10 0
8 7 82 0
7 7 89 0
9 7 117 0
4 8 -77 0
7 8 73 0
9 8 75 0
5 8 82 0
3 8 96 0
5 8 109 0
5 9 -132 0
9 9 -117 0
6 9 -112 0
8 9 -72 0
8 9 -68 0
9 9 -61 0
8 9 -57 0
2 9 -52 0
8 9 23 0
7 9 32 0
8 9 48 0
4 9 50 0
7 9 90 0
4 9 122 0
8 9 124 0
7 10 -102 0
3 10 -79 0
2 10 -59 0
10 10 -45 0
3 10 32 0
1 10 58 0
7 10 62 0
1 10 63 0
7 10 75 0
5 11 -82 0
4 11 -73 0
4 11 -49 0
5 11 -42 0
8 11 14 0
6 11 53 0
9 11 65 0
3 11 80 0
5 11 91 0
5 11 104 0
1 11 138 0
3 12 -113 0
4 12 -100 0
8 12 -89 0
4 12 -64 0
2 12 -54 0
5 12 -47 0
3 12 -46 0
5 12 -16 0
2 12 42 0
6 12 80 0
3 12 88 0
7 12 108 0
8 12 115 0
4 12 124 0
7 12 132 0
1 13 -133 0
4 13 -130 0
3 13 -127 0
1 13 -99 0
2 13 -49 0
8 13 -20 0
5 13 36 0
5 13 87 0
3 13 105 0
3 13 120 0
1 14 -140 0
2 14 -67 0
5 14 49 0
5 14 90 0
6 14 96 0
5 14 118 0
8 15 -98 0
9 15 -94 0
3 15 -48 0
2 15 -37 0
1 15 26 0
7 15 53 0
3 15 91 0
5 15 94 0
8 15 99 0
8 15 110 0
7 16 -124 0
5 16 -117 0
6 16 -103 0
10 16 -86 0
2 16 -60 0
6 16 -59 0
4 16 -47 0
5 16 46 0
6 17 -115 0
5 17 -110 0
2 17 -78 0
1 17 -19 0
8 17 25 0
4 17 26 0
3 17 104 0
9 18 -131 0
5 18 -128 0
7 18 -86 0
4 18 -51 0
10 18 -24 0
3 18 38 0
1 18 42 0
9 18 47 0
5 18 105 0
2 18 107 0
9 19 -61 0
1 19 42 0
5 19 86 0
4 19 98 0
8 19 100 0
3 20 -111 0
10 20 -95 0
3 20 29 0
8 20 91 0
9 20 108 0
4 20 135 0
4 21 -137 0
3 21 -135 0
8 21 -101 0
9 21 -81 0
7 21 -41 0
9 21 -35 0
10 21 52 0
5 22 -131 0
4 22 -93 0
3 22 -29 0
4 22 25 0
8 22 32 0
9 22 53 0
7 22 84 0
8 22 90 0
2 23 -109 0
7 23 -106 0
7 23 -93 0
5 23 -92 0
9 23 -70 0
6 23 -68 0
6 23 -44 0
3 23 80 0
9 23 109 0
4 23 125 0
5 23 139 0
8 24 -108 0
6 24 -27 0
3 24 85 0
8 24 110 0
10 24 127 0
6 25 -110 0
1 25 -101 0
7 25 -100 0
6 25 -73 0
7 25 -61 0
7 25 -52 0
5 25 -49 0
2 25 -42 0
9 25 81 0
7 25 86 0
5 25 107 0
7 25 114 0
6 26 -129 0
2 26 35 0
5 26 36 0
7 26 65 0
8 26 78 0
2 26 91 0
2 26 111 0
7 26 115 0
6 26 124 0
7 27 -132 0
9 27 -92 0
5 27 -69 0
1 27 -57 0
5 27 -53 0
4 27 -34 0
6 27 43 0
7 27 62 0
1 27 103 0
6 28 -99 0
3 28 -81 0
2 28 65 0
3 28 78 0
8 28 87 0
8 28 90 0
9 28 124 0
3 28 129 0
9 29 -125 0
8 29 67 0
9 29 75 0
5 30 -71 0
6 30 -65 0
5 30 -62 0
6 30 69 0
10 30 90 0
2 31 -140 0
4 31 -74 0
1 31 66 0
3 31 85 0
1 31 133 0
7 31 140 0
10 32 -107 0
10 32 -79 0
2 32 -54 0
10 32 -48 0
4 32 37 0
4 32 52 0
6 32 121 0
1 33 -50 0
5 33 108 0
2 33 131 0
3 34 -103 0
5 34 -93 0
4 34 -85 0
10 34 -72 0
3 34 -48 0
3 34 39 0
3 34 60 0
2 34 83 0
1 34 109 0
1 35 -105 0
6 35 -104 0
6 35 -39 0
5 35 66 0
1 35 114 0
5 35 119 0
6 35 122 0
4 35 131 0
6 36 -123 0
9 36 -60 0
5 36 -56 0
2 36 62 0
8 36 70 0
4 37 -137 0
3 37 -125 0
8 37 -75 0
8 37 -59 0
6 37 44 0
4 37 51 0
8 37 119 0
9 37 123 0
5 37 134 0
1 38 -132 0
5 38 -128 0
8 38 -71 0
10 38 -68 0
7 38 -53 0
10 39 -136 0
2 39 -113 0
8 39 -83 0
1 39 106 0
3 40 -114 0
3 40 -45 0
6 40 42 0
7 40 73 0
4 40 93 0
1 40 99 0
3 40 135 0
7 40 136 0
6 41 -135 0
2 41 -128 0
2 41 -127 0
7 41 -99 0
9 41 -79 0
5 41 -76 0
9 41 81 0
7 41 95 0
3 42 -126 0
5 42 -52 0
10 42 -45 0
1 43 -132 0
4 43 -130 0
5 43 -100 0
1 43 44 0
8 43 90 0
2 43 95 0
10 43 97 0
5 43 122 0
2 43 125 0
2 44 -137 0
2 44 -117 0
2 44 -110 0
4 44 -70 0
5 44 51 0
7 44 59 0
10 44 61 0
7 44 69 0
7 44 75 0
3 44 122 0
5 45 -115 0
3 45 -105 0
4 45 52 0
6 45 56 0
9 45 67 0
2 45 68 0
10 45 96 0
8 45 137 0
8 46 -124 0
3 46 -116 0
3 46 -77 0
8 46 -66 0
3 46 -47 0
6 47 51 0
3 47 68 0
3 47 117 0
4 48 -107 0
4 48 -67 0
3 48 99 0
8 48 106 0
5 48 133 0
4 48 134 0
9 49 -80 0
6 49 80 0
7 49 124 0
4 49 126 0
3 50 -64 0
6 50 57 0
1 50 61 0
10 50 73 0
8 50 78 0
5 50 107 0
3 50 129 0
2 51 -108 0
10 51 81 0
2 51 131 0
3 52 -135 0
10 52 -124 0
9 52 -91 0
2 52 -88 0
3 52 -78 0
2 52 -63 0
9 52 61 0
5 52 70 0
7 52 133 0
2 53 -119 0
7 53 65 0
1 53 74 0
5 53 80 0
9 53 81 0
8 53 125 0
10 54 -139 0
3 54 -133 0
7 55 -119 0
6 55 -107 0
9 55 -99 0
10 55 120 0
9 55 134 0
5 56 -135 0
1 56 -127 0
8 56 -66 0
4 56 136 0
5 57 -138 0
1 57 -134 0
4 57 -133 0
5 57 -127 0
2 57 -67 0
7 57 118 0
4 58 -129 0
2 58 -92 0
7 58 -83 0
6 58 -82 0
3 58 -76 0
6 58 -66 0
9 58 67 0
9 59 -122 0
7 59 -107 0
6 59 -102 0
9 59 -72 0
2 59 -69 0
5 59 89 0
7 59 136 0
2 60 -95 0
7 60 -72 0
4 60 67 0
7 60 72 0
6 60 81 0
4 60 82 0
6 60 120 0
2 61 -88 0
4 61 86 0
4 61 110 0
4 62 -137 0
8 62 -119 0
4 62 -106 0
8 62 -95 0
2 62 -87 0
6 62 113 0
4 62 119 0
5 62 138 0
6 63 -87 0
1 63 -78 0
10 63 -71 0
8 63 80 0
6 63 91 0
9 63 113 0
8 64 -138 0
3 64 -69 0
6 64 108 0
7 65 -114 0
5 65 -73 0
1 66 -116 0
4 66 -92 0
6 66 105 0
7 66 135 0
7 67 -96 0
3 67 -71 0
4 67 79 0
10 67 102 0
7 67 127 0
5 68 -121 0
3 68 -105 0
10 68 -73 0
8 68 72 0
1 68 82 0
4 68 85 0
6 68 105 0
2 69 -115 0
9 69 -70 0
9 69 74 0
7 69 125 0
5 70 -117 0
9 70 98 0
6 70 99 0
4 71 -127 0
6 71 -115 0
6 71 -108 0
1 71 -82 0
8 71 97 0
2 72 -133 0
7 72 -96 0
3 73 -130 0
2 73 -114 0
1 73 -82 0
8 73 125 0
8 74 -121 0
7 74 -111 0
9 74 -99 0
2 74 75 0
7 74 79 0
6 74 82 0
5 74 89 0
9 74 116 0
6 75 -100 0
3 75 84 0
9 75 123 0
9 76 -123 0
8 76 -118 0
2 76 -114 0
8 76 -103 0
7 76 130 0
7 77 -123 0
3 77 -120 0
7 77 -81 0
4 77 78 0
6 77 108 0
2 78 -114 0
8 78 -87 0
6 79 108 0
10 80 -105 0
9 80 -104 0
4 80 95 0
3 80 123 0
10 80 136 0
4 81 -133 0
9 81 -127 0
8 82 133 0
1 83 -93 0
8 83 89 0
8 83 99 0
7 83 112 0
5 83 124 0
4 83 125 0
7 83 130 0
10 84 -138 0
6 84 -135 0
6 84 85 0
9 84 110 0
4 85 -139 0
7 85 115 0
7 86 -99 0
2 86 -95 0
4 86 132 0
9 86 138 0
7 87 -95 0
6 87 105 0
6 88 -138 0
8 88 -109 0
5 88 116 0
2 88 125 0
8 89 -139 0
4 89 -132 0
5 89 -92 0
10 89 107 0
3 89 108 0
8 89 127 0
9 90 126 0
10 90 131 0
8 91 -122 0
8 91 -115 0
8 91 -106 0
6 91 -95 0
2 91 114 0
2 91 126 0
3 91 132 0
2 92 100 0
7 92 103 0
8 93 -124 0
10 93 -107 0
1 93 106 0
5 93 127 0
7 93 136 0
2 94 -136 0
8 94 -112 0
7 94 114 0
8 94 134 0
4 94 137 0
2 95 -131 0
6 95 -105 0
8 95 114 0
3 96 -130 0
5 96 -115 0
1 96 -102 0
7 96 103 0
4 96 108 0
4 97 -106 0
5 97 -100 0
3 98 -136 0
3 98 -122 0
3 98 -117 0
1 98 -112 0
2 99 -115 0
8 99 103 0
2 99 125 0
2 100 -133 0
10 100 -120 0
3 101 138 0
8 102 -118 0
8 102 106 0
3 103 -133 0
9 103 -112 0
2 103 107 0
9 104 -138 0
10 104 -136 0
9 104 -130 0
6 104 118 0
8 104 127 0
3 105 -117 0
7 105 -111 0
4 106 -139 0
10 106 -116 0
9 106 108 0
8 107 -115 0
1 107 -114 0
6 107 115 0
2 107 121 0
4 107 140 0
10 108 -140 0
5 108 126 0
6 109 -113 0
3 109 115 0
5 109 124 0
7 110 -127 0
1 110 127 0
6 111 -131 0
8 111 123 0
1 112 -117 0
8 112 -116 0
7 112 136 0
8 113 -136 0
1 113 -117 0
6 113 121 0
10 113 132 0
9 114 -123 0
5 114 -115 0
9 114 140 0
5 115 120 0
3 115 130 0
2 119 -121 0
2 119 131 0
7 120 -130 0
1 123 -124 0
10 126 127 0
5 128 138 0
1 129 138 0
6 131 132 0
6 133 139 0
4 135 -139 0
5 135 140 0
9 137 -140 0
